p cnf 757 2662
1 2 3 4 0
-1 -2 0
-1 -3 0
-1 -4 0
-2 -3 0
-2 -4 0
-3 -4 0
5 -6 -7 0
6 -5 -7 0
-5 -6 7 0
6 5 7 0
-1 -7 0
6 -8 -9 0
8 -6 -9 0
9 -6 -8 0
9 6 8 0
-2 9 0
-5 10 0
-8 10 0
5 8 -10 0
6 -10 -11 0
-6 10 -11 0
-6 -10 11 0
6 10 11 0
-3 11 0
5 12 0
8 12 0
-5 -8 -12 0
-6 12 -13 0
6 -12 -13 0
13 -12 -6 0
6 12 13 0
-4 -13 0
8 -14 -15 0
14 -8 -15 0
-8 -14 15 0
8 14 15 0
-1 -15 0
-5 14 -16 0
5 -14 -16 0
16 -14 -5 0
16 14 5 0
-2 16 0
-6 17 0
-8 17 0
6 8 -17 0
14 -17 -18 0
-14 17 -18 0
-14 -17 18 0
14 17 18 0
-3 18 0
8 19 0
6 19 0
-8 -6 -19 0
-14 19 -20 0
14 -19 -20 0
20 -19 -14 0
14 19 20 0
-4 -20 0
21 -22 -23 0
22 -21 -23 0
-21 -22 23 0
22 21 23 0
-1 -23 0
22 -24 -25 0
24 -22 -25 0
25 -22 -24 0
25 22 24 0
-2 25 0
-21 26 0
-24 26 0
-27 26 0
-28 26 0
-29 26 0
-30 26 0
-31 26 0
32 0
22 -26 -33 0
-22 26 -33 0
-22 -26 33 0
22 26 33 0
-3 33 0
21 34 0
24 34 0
27 34 0
28 34 0
29 34 0
30 34 0
31 34 0
-35 0
-22 34 -36 0
22 -34 -36 0
36 -34 -22 0
22 34 36 0
-4 -36 0
24 -37 -38 0
37 -24 -38 0
-24 -37 38 0
24 37 38 0
-1 -38 0
37 -27 -39 0
27 -37 -39 0
39 -37 -27 0
39 37 27 0
-2 39 0
-24 40 0
-27 40 0
-28 40 0
-29 40 0
-30 40 0
-31 40 0
24 27 28 29 30 31 -40 0
37 -40 -41 0
-37 40 -41 0
-37 -40 41 0
37 40 41 0
-3 41 0
24 42 0
27 42 0
28 42 0
29 42 0
30 42 0
31 42 0
-43 0
-37 42 -44 0
37 -42 -44 0
44 -42 -37 0
37 42 44 0
-4 -44 0
27 -45 -46 0
45 -27 -46 0
-27 -45 46 0
27 45 46 0
-1 -46 0
45 -28 -47 0
28 -45 -47 0
47 -45 -28 0
47 45 28 0
-2 47 0
-27 48 0
-28 48 0
-29 48 0
-30 48 0
-31 48 0
27 28 29 30 31 -48 0
45 -48 -49 0
-45 48 -49 0
-45 -48 49 0
45 48 49 0
-3 49 0
27 50 0
28 50 0
29 50 0
30 50 0
31 50 0
-51 0
-45 50 -52 0
45 -50 -52 0
52 -50 -45 0
45 50 52 0
-4 -52 0
28 -53 -54 0
53 -28 -54 0
-28 -53 54 0
28 53 54 0
-1 -54 0
53 -29 -55 0
29 -53 -55 0
55 -53 -29 0
55 53 29 0
-2 55 0
-28 56 0
-29 56 0
-30 56 0
-31 56 0
28 29 30 31 -56 0
53 -56 -57 0
-53 56 -57 0
-53 -56 57 0
53 56 57 0
-3 57 0
28 58 0
29 58 0
30 58 0
31 58 0
-59 0
-53 58 -60 0
53 -58 -60 0
60 -58 -53 0
53 58 60 0
-4 -60 0
29 -61 -62 0
61 -29 -62 0
-29 -61 62 0
29 61 62 0
-1 -62 0
61 -30 -63 0
30 -61 -63 0
63 -61 -30 0
63 61 30 0
-2 63 0
61 -56 -64 0
56 -61 -64 0
-56 -61 64 0
61 56 64 0
-3 64 0
58 -61 -65 0
61 -58 -65 0
65 -58 -61 0
61 58 65 0
-4 -65 0
30 -66 -67 0
66 -30 -67 0
-30 -66 67 0
30 66 67 0
-1 -67 0
66 -31 -68 0
31 -66 -68 0
68 -66 -31 0
68 66 31 0
-2 68 0
66 -56 -69 0
56 -66 -69 0
-56 -66 69 0
66 56 69 0
-3 69 0
58 -66 -70 0
66 -58 -70 0
70 -58 -66 0
66 58 70 0
-4 -70 0
31 -71 -72 0
71 -31 -72 0
-31 -71 72 0
31 71 72 0
-1 -72 0
-28 71 -73 0
28 -71 -73 0
73 -71 -28 0
73 71 28 0
-2 73 0
-31 74 0
-53 74 0
31 53 -74 0
71 -74 -75 0
-71 74 -75 0
-71 -74 75 0
71 74 75 0
-3 75 0
31 76 0
53 76 0
-31 -53 -76 0
-71 76 -77 0
71 -76 -77 0
77 -76 -71 0
71 76 77 0
-4 -77 0
78 -79 -80 0
79 -78 -80 0
-78 -79 80 0
79 78 80 0
-1 -80 0
79 -81 -82 0
81 -79 -82 0
82 -79 -81 0
82 79 81 0
-2 82 0
-78 83 0
-81 83 0
-84 83 0
-85 83 0
-86 83 0
-87 83 0
-88 83 0
89 0
79 -83 -90 0
-79 83 -90 0
-79 -83 90 0
79 83 90 0
-3 90 0
78 91 0
81 91 0
84 91 0
85 91 0
86 91 0
87 91 0
88 91 0
-92 0
-79 91 -93 0
79 -91 -93 0
93 -91 -79 0
79 91 93 0
-4 -93 0
81 -94 -95 0
94 -81 -95 0
-81 -94 95 0
81 94 95 0
-1 -95 0
94 -84 -96 0
84 -94 -96 0
96 -94 -84 0
96 94 84 0
-2 96 0
-81 97 0
-84 97 0
-85 97 0
-86 97 0
-87 97 0
-88 97 0
98 0
94 -97 -99 0
-94 97 -99 0
-94 -97 99 0
94 97 99 0
-3 99 0
81 100 0
84 100 0
85 100 0
86 100 0
87 100 0
88 100 0
-101 0
-94 100 -102 0
94 -100 -102 0
102 -100 -94 0
94 100 102 0
-4 -102 0
84 -103 -104 0
103 -84 -104 0
-84 -103 104 0
84 103 104 0
-1 -104 0
103 -85 -105 0
85 -103 -105 0
105 -103 -85 0
105 103 85 0
-2 105 0
-84 106 0
-85 106 0
-86 106 0
-87 106 0
-88 106 0
84 85 86 87 88 -106 0
103 -106 -107 0
-103 106 -107 0
-103 -106 107 0
103 106 107 0
-3 107 0
84 108 0
85 108 0
86 108 0
87 108 0
88 108 0
-109 0
-103 108 -110 0
103 -108 -110 0
110 -108 -103 0
103 108 110 0
-4 -110 0
85 -111 -112 0
111 -85 -112 0
-85 -111 112 0
85 111 112 0
-1 -112 0
111 -86 -113 0
86 -111 -113 0
113 -111 -86 0
113 111 86 0
-2 113 0
-85 114 0
-86 114 0
-87 114 0
-88 114 0
85 86 87 88 -114 0
111 -114 -115 0
-111 114 -115 0
-111 -114 115 0
111 114 115 0
-3 115 0
85 116 0
86 116 0
87 116 0
88 116 0
-117 0
-111 116 -118 0
111 -116 -118 0
118 -116 -111 0
111 116 118 0
-4 -118 0
86 -119 -120 0
119 -86 -120 0
-86 -119 120 0
86 119 120 0
-1 -120 0
119 -87 -121 0
87 -119 -121 0
121 -119 -87 0
121 119 87 0
-2 121 0
119 -114 -122 0
114 -119 -122 0
-114 -119 122 0
119 114 122 0
-3 122 0
116 -119 -123 0
119 -116 -123 0
123 -116 -119 0
119 116 123 0
-4 -123 0
87 -124 -125 0
124 -87 -125 0
-87 -124 125 0
87 124 125 0
-1 -125 0
124 -88 -126 0
88 -124 -126 0
126 -124 -88 0
126 124 88 0
-2 126 0
124 -114 -127 0
114 -124 -127 0
-114 -124 127 0
124 114 127 0
-3 127 0
116 -124 -128 0
124 -116 -128 0
128 -116 -124 0
124 116 128 0
-4 -128 0
88 -129 -130 0
129 -88 -130 0
-88 -129 130 0
88 129 130 0
-1 -130 0
-85 129 -131 0
85 -129 -131 0
131 -129 -85 0
131 129 85 0
-2 131 0
-88 132 0
-111 132 0
88 111 -132 0
129 -132 -133 0
-129 132 -133 0
-129 -132 133 0
129 132 133 0
-3 133 0
88 134 0
111 134 0
-88 -111 -134 0
-129 134 -135 0
129 -134 -135 0
135 -134 -129 0
129 134 135 0
-4 -135 0
136 -137 -138 0
137 -136 -138 0
-136 -137 138 0
137 136 138 0
-1 -138 0
137 -139 -140 0
139 -137 -140 0
140 -137 -139 0
140 137 139 0
-2 140 0
-136 141 0
-139 141 0
-142 141 0
136 139 142 -141 0
137 -141 -143 0
-137 141 -143 0
-137 -141 143 0
137 141 143 0
-3 143 0
136 144 0
139 144 0
142 144 0
-136 -139 -142 -144 0
-137 144 -145 0
137 -144 -145 0
145 -144 -137 0
137 144 145 0
-4 -145 0
139 -146 -147 0
146 -139 -147 0
-139 -146 147 0
139 146 147 0
-1 -147 0
146 -142 -148 0
142 -146 -148 0
148 -146 -142 0
148 146 142 0
-2 148 0
-139 149 0
-142 149 0
139 142 -149 0
146 -149 -150 0
-146 149 -150 0
-146 -149 150 0
146 149 150 0
-3 150 0
139 151 0
142 151 0
-139 -142 -151 0
-146 151 -152 0
146 -151 -152 0
152 -151 -146 0
146 151 152 0
-4 -152 0
142 -153 -154 0
153 -142 -154 0
-142 -153 154 0
142 153 154 0
-1 -154 0
153 -142 -155 0
142 -153 -155 0
155 -153 -142 0
155 153 142 0
-2 155 0
-142 156 0
-153 156 0
142 153 -156 0
153 -156 -157 0
-153 156 -157 0
-153 -156 157 0
153 156 157 0
-3 157 0
142 158 0
153 158 0
-142 -153 -158 0
-153 158 -159 0
153 -158 -159 0
159 -158 -153 0
153 158 159 0
-4 -159 0
160 -161 -162 0
161 -160 -162 0
-160 -161 162 0
161 160 162 0
-1 -162 0
161 -163 -164 0
163 -161 -164 0
164 -161 -163 0
164 161 163 0
-2 164 0
-160 165 0
-163 165 0
-166 165 0
-167 165 0
-168 165 0
160 163 166 167 168 -165 0
161 -165 -169 0
-161 165 -169 0
-161 -165 169 0
161 165 169 0
-3 169 0
160 170 0
163 170 0
166 170 0
167 170 0
168 170 0
-171 0
-161 170 -172 0
161 -170 -172 0
172 -170 -161 0
161 170 172 0
-4 -172 0
163 -173 -174 0
173 -163 -174 0
-163 -173 174 0
163 173 174 0
-1 -174 0
173 -166 -175 0
166 -173 -175 0
175 -173 -166 0
175 173 166 0
-2 175 0
-163 176 0
-166 176 0
-167 176 0
-168 176 0
163 166 167 168 -176 0
173 -176 -177 0
-173 176 -177 0
-173 -176 177 0
173 176 177 0
-3 177 0
163 178 0
166 178 0
167 178 0
168 178 0
-179 0
-173 178 -180 0
173 -178 -180 0
180 -178 -173 0
173 178 180 0
-4 -180 0
166 -181 -182 0
181 -166 -182 0
-166 -181 182 0
166 181 182 0
-1 -182 0
181 -167 -183 0
167 -181 -183 0
183 -181 -167 0
183 181 167 0
-2 183 0
-166 184 0
-167 184 0
-168 184 0
166 167 168 -184 0
181 -184 -185 0
-181 184 -185 0
-181 -184 185 0
181 184 185 0
-3 185 0
166 186 0
167 186 0
168 186 0
-166 -167 -168 -186 0
-181 186 -187 0
181 -186 -187 0
187 -186 -181 0
181 186 187 0
-4 -187 0
167 -188 -189 0
188 -167 -189 0
-167 -188 189 0
167 188 189 0
-1 -189 0
188 -168 -190 0
168 -188 -190 0
190 -188 -168 0
190 188 168 0
-2 190 0
188 -184 -191 0
184 -188 -191 0
-184 -188 191 0
188 184 191 0
-3 191 0
186 -188 -192 0
188 -186 -192 0
192 -186 -188 0
188 186 192 0
-4 -192 0
168 -193 -194 0
193 -168 -194 0
-168 -193 194 0
168 193 194 0
-1 -194 0
-166 193 -195 0
166 -193 -195 0
195 -193 -166 0
195 193 166 0
-2 195 0
-168 196 0
-181 196 0
168 181 -196 0
193 -196 -197 0
-193 196 -197 0
-193 -196 197 0
193 196 197 0
-3 197 0
168 198 0
181 198 0
-168 -181 -198 0
-193 198 -199 0
193 -198 -199 0
199 -198 -193 0
193 198 199 0
-4 -199 0
200 -201 -202 0
201 -200 -202 0
-200 -201 202 0
201 200 202 0
-1 -202 0
201 -203 -204 0
203 -201 -204 0
204 -201 -203 0
204 201 203 0
-2 204 0
-5 205 0
-8 205 0
-200 205 0
-203 205 0
-206 205 0
-207 205 0
5 8 200 203 206 207 -205 0
201 -205 -208 0
-201 205 -208 0
-201 -205 208 0
201 205 208 0
-3 208 0
5 209 0
8 209 0
200 209 0
203 209 0
206 209 0
207 209 0
-210 0
-201 209 -211 0
201 -209 -211 0
211 -209 -201 0
201 209 211 0
-4 -211 0
203 -212 -213 0
212 -203 -213 0
-203 -212 213 0
203 212 213 0
-1 -213 0
212 -206 -214 0
206 -212 -214 0
214 -212 -206 0
214 212 206 0
-2 214 0
-5 215 0
-8 215 0
-203 215 0
-206 215 0
-207 215 0
5 8 203 206 207 -215 0
212 -215 -216 0
-212 215 -216 0
-212 -215 216 0
212 215 216 0
-3 216 0
5 217 0
8 217 0
203 217 0
206 217 0
207 217 0
-218 0
-212 217 -219 0
212 -217 -219 0
219 -217 -212 0
212 217 219 0
-4 -219 0
206 -220 -221 0
220 -206 -221 0
-206 -220 221 0
206 220 221 0
-1 -221 0
220 -207 -222 0
207 -220 -222 0
222 -220 -207 0
222 220 207 0
-2 222 0
-5 223 0
-8 223 0
-206 223 0
-207 223 0
5 8 206 207 -223 0
220 -223 -224 0
-220 223 -224 0
-220 -223 224 0
220 223 224 0
-3 224 0
5 225 0
8 225 0
206 225 0
207 225 0
-226 0
-220 225 -227 0
220 -225 -227 0
227 -225 -220 0
220 225 227 0
-4 -227 0
207 -228 -229 0
228 -207 -229 0
-207 -228 229 0
207 228 229 0
-1 -229 0
-5 228 -230 0
5 -228 -230 0
230 -228 -5 0
230 228 5 0
-2 230 0
-5 231 0
-8 231 0
-207 231 0
5 8 207 -231 0
228 -231 -232 0
-228 231 -232 0
-228 -231 232 0
228 231 232 0
-3 232 0
5 233 0
8 233 0
207 233 0
-5 -8 -207 -233 0
-228 233 -234 0
228 -233 -234 0
234 -233 -228 0
228 233 234 0
-4 -234 0
235 -236 -237 0
236 -235 -237 0
-235 -236 237 0
236 235 237 0
-1 -237 0
236 -238 -239 0
238 -236 -239 0
239 -236 -238 0
239 236 238 0
-2 239 0
-166 240 0
-167 240 0
-168 240 0
-235 240 0
-238 240 0
-241 240 0
-242 240 0
243 0
236 -240 -244 0
-236 240 -244 0
-236 -240 244 0
236 240 244 0
-3 244 0
166 245 0
167 245 0
168 245 0
235 245 0
238 245 0
241 245 0
242 245 0
-246 0
-236 245 -247 0
236 -245 -247 0
247 -245 -236 0
236 245 247 0
-4 -247 0
238 -248 -249 0
248 -238 -249 0
-238 -248 249 0
238 248 249 0
-1 -249 0
248 -241 -250 0
241 -248 -250 0
250 -248 -241 0
250 248 241 0
-2 250 0
-166 251 0
-167 251 0
-168 251 0
-238 251 0
-241 251 0
-242 251 0
252 0
248 -251 -253 0
-248 251 -253 0
-248 -251 253 0
248 251 253 0
-3 253 0
166 254 0
167 254 0
168 254 0
238 254 0
241 254 0
242 254 0
-255 0
-248 254 -256 0
248 -254 -256 0
256 -254 -248 0
248 254 256 0
-4 -256 0
241 -257 -258 0
257 -241 -258 0
-241 -257 258 0
241 257 258 0
-1 -258 0
257 -242 -259 0
242 -257 -259 0
259 -257 -242 0
259 257 242 0
-2 259 0
-166 260 0
-167 260 0
-168 260 0
-241 260 0
-242 260 0
166 167 168 241 242 -260 0
257 -260 -261 0
-257 260 -261 0
-257 -260 261 0
257 260 261 0
-3 261 0
166 262 0
167 262 0
168 262 0
241 262 0
242 262 0
-263 0
-257 262 -264 0
257 -262 -264 0
264 -262 -257 0
257 262 264 0
-4 -264 0
242 -265 -266 0
265 -242 -266 0
-242 -265 266 0
242 265 266 0
-1 -266 0
-168 265 -267 0
168 -265 -267 0
267 -265 -168 0
267 265 168 0
-2 267 0
-166 268 0
-167 268 0
-168 268 0
-242 268 0
166 167 168 242 -268 0
265 -268 -269 0
-265 268 -269 0
-265 -268 269 0
265 268 269 0
-3 269 0
166 270 0
167 270 0
168 270 0
242 270 0
-271 0
-265 270 -272 0
265 -270 -272 0
272 -270 -265 0
265 270 272 0
-4 -272 0
273 -274 -275 0
274 -273 -275 0
-273 -274 275 0
274 273 275 0
-1 -275 0
274 -276 -277 0
276 -274 -277 0
277 -274 -276 0
277 274 276 0
-2 277 0
-5 278 0
-8 278 0
-273 278 0
-276 278 0
-279 278 0
5 8 273 276 279 -278 0
274 -278 -280 0
-274 278 -280 0
-274 -278 280 0
274 278 280 0
-3 280 0
5 281 0
8 281 0
273 281 0
276 281 0
279 281 0
-282 0
-274 281 -283 0
274 -281 -283 0
283 -281 -274 0
274 281 283 0
-4 -283 0
276 -284 -285 0
284 -276 -285 0
-276 -284 285 0
276 284 285 0
-1 -285 0
284 -279 -286 0
279 -284 -286 0
286 -284 -279 0
286 284 279 0
-2 286 0
-5 287 0
-8 287 0
-276 287 0
-279 287 0
5 8 276 279 -287 0
284 -287 -288 0
-284 287 -288 0
-284 -287 288 0
284 287 288 0
-3 288 0
5 289 0
8 289 0
276 289 0
279 289 0
-290 0
-284 289 -291 0
284 -289 -291 0
291 -289 -284 0
284 289 291 0
-4 -291 0
279 -292 -293 0
292 -279 -293 0
-279 -292 293 0
279 292 293 0
-1 -293 0
-8 292 -294 0
8 -292 -294 0
294 -292 -8 0
294 292 8 0
-2 294 0
-5 295 0
-8 295 0
-279 295 0
5 8 279 -295 0
292 -295 -296 0
-292 295 -296 0
-292 -295 296 0
292 295 296 0
-3 296 0
5 297 0
8 297 0
279 297 0
-5 -8 -279 -297 0
-292 297 -298 0
292 -297 -298 0
298 -297 -292 0
292 297 298 0
-4 -298 0
299 -300 -301 0
300 -299 -301 0
-299 -300 301 0
300 299 301 0
-1 -301 0
300 -302 -303 0
302 -300 -303 0
303 -300 -302 0
303 300 302 0
-2 303 0
-299 304 0
-302 304 0
-305 304 0
299 302 305 -304 0
300 -304 -306 0
-300 304 -306 0
-300 -304 306 0
300 304 306 0
-3 306 0
299 307 0
302 307 0
305 307 0
-299 -302 -305 -307 0
-300 307 -308 0
300 -307 -308 0
308 -307 -300 0
300 307 308 0
-4 -308 0
302 -309 -310 0
309 -302 -310 0
-302 -309 310 0
302 309 310 0
-1 -310 0
309 -305 -311 0
305 -309 -311 0
311 -309 -305 0
311 309 305 0
-2 311 0
-302 312 0
-305 312 0
302 305 -312 0
309 -312 -313 0
-309 312 -313 0
-309 -312 313 0
309 312 313 0
-3 313 0
302 314 0
305 314 0
-302 -305 -314 0
-309 314 -315 0
309 -314 -315 0
315 -314 -309 0
309 314 315 0
-4 -315 0
305 -316 -317 0
316 -305 -317 0
-305 -316 317 0
305 316 317 0
-1 -317 0
316 -305 -318 0
305 -316 -318 0
318 -316 -305 0
318 316 305 0
-2 318 0
-305 319 0
-316 319 0
305 316 -319 0
316 -319 -320 0
-316 319 -320 0
-316 -319 320 0
316 319 320 0
-3 320 0
305 321 0
316 321 0
-305 -316 -321 0
-316 321 -322 0
316 -321 -322 0
322 -321 -316 0
316 321 322 0
-4 -322 0
323 -324 -325 0
324 -323 -325 0
-323 -324 325 0
324 323 325 0
-1 -325 0
324 -326 -327 0
326 -324 -327 0
327 -324 -326 0
327 324 326 0
-2 327 0
-85 328 0
-86 328 0
-87 328 0
-88 328 0
-323 328 0
-326 328 0
329 0
324 -328 -330 0
-324 328 -330 0
-324 -328 330 0
324 328 330 0
-3 330 0
85 331 0
86 331 0
87 331 0
88 331 0
323 331 0
326 331 0
-332 0
-324 331 -333 0
324 -331 -333 0
333 -331 -324 0
324 331 333 0
-4 -333 0
326 -334 -335 0
334 -326 -335 0
-326 -334 335 0
326 334 335 0
-1 -335 0
-88 334 -336 0
88 -334 -336 0
336 -334 -88 0
336 334 88 0
-2 336 0
-85 337 0
-86 337 0
-87 337 0
-88 337 0
-326 337 0
85 86 87 88 326 -337 0
334 -337 -338 0
-334 337 -338 0
-334 -337 338 0
334 337 338 0
-3 338 0
85 339 0
86 339 0
87 339 0
88 339 0
326 339 0
-340 0
-334 339 -341 0
334 -339 -341 0
341 -339 -334 0
334 339 341 0
-4 -341 0
342 -343 -344 0
343 -342 -344 0
-342 -343 344 0
343 342 344 0
-1 -344 0
343 -345 -346 0
345 -343 -346 0
346 -343 -345 0
346 343 345 0
-2 346 0
-85 347 0
-86 347 0
-87 347 0
-88 347 0
-326 347 0
-342 347 0
-345 347 0
348 0
343 -347 -349 0
-343 347 -349 0
-343 -347 349 0
343 347 349 0
-3 349 0
85 350 0
86 350 0
87 350 0
88 350 0
326 350 0
342 350 0
345 350 0
-351 0
-343 350 -352 0
343 -350 -352 0
352 -350 -343 0
343 350 352 0
-4 -352 0
345 -353 -354 0
353 -345 -354 0
-345 -353 354 0
345 353 354 0
-1 -354 0
-326 353 -355 0
326 -353 -355 0
355 -353 -326 0
355 353 326 0
-2 355 0
-85 356 0
-86 356 0
-87 356 0
-88 356 0
-326 356 0
-345 356 0
357 0
353 -356 -358 0
-353 356 -358 0
-353 -356 358 0
353 356 358 0
-3 358 0
85 359 0
86 359 0
87 359 0
88 359 0
326 359 0
345 359 0
-360 0
-353 359 -361 0
353 -359 -361 0
361 -359 -353 0
353 359 361 0
-4 -361 0
362 -363 -364 0
363 -362 -364 0
-362 -363 364 0
363 362 364 0
-1 -364 0
363 -365 -366 0
365 -363 -366 0
366 -363 -365 0
366 363 365 0
-2 366 0
-362 367 0
-365 367 0
-368 367 0
-369 367 0
-370 367 0
-371 367 0
-372 367 0
-373 367 0
374 0
363 -367 -375 0
-363 367 -375 0
-363 -367 375 0
363 367 375 0
-3 375 0
362 376 0
365 376 0
368 376 0
369 376 0
370 376 0
371 376 0
372 376 0
373 376 0
-377 0
-363 376 -378 0
363 -376 -378 0
378 -376 -363 0
363 376 378 0
-4 -378 0
365 -379 -380 0
379 -365 -380 0
-365 -379 380 0
365 379 380 0
-1 -380 0
379 -368 -381 0
368 -379 -381 0
381 -379 -368 0
381 379 368 0
-2 381 0
-365 382 0
-368 382 0
-369 382 0
-370 382 0
-371 382 0
-372 382 0
-373 382 0
383 0
379 -382 -384 0
-379 382 -384 0
-379 -382 384 0
379 382 384 0
-3 384 0
365 385 0
368 385 0
369 385 0
370 385 0
371 385 0
372 385 0
373 385 0
-386 0
-379 385 -387 0
379 -385 -387 0
387 -385 -379 0
379 385 387 0
-4 -387 0
368 -388 -389 0
388 -368 -389 0
-368 -388 389 0
368 388 389 0
-1 -389 0
388 -369 -390 0
369 -388 -390 0
390 -388 -369 0
390 388 369 0
-2 390 0
-368 391 0
-369 391 0
-370 391 0
-371 391 0
-372 391 0
-373 391 0
392 0
388 -391 -393 0
-388 391 -393 0
-388 -391 393 0
388 391 393 0
-3 393 0
368 394 0
369 394 0
370 394 0
371 394 0
372 394 0
373 394 0
-395 0
-388 394 -396 0
388 -394 -396 0
396 -394 -388 0
388 394 396 0
-4 -396 0
369 -397 -398 0
397 -369 -398 0
-369 -397 398 0
369 397 398 0
-1 -398 0
397 -370 -399 0
370 -397 -399 0
399 -397 -370 0
399 397 370 0
-2 399 0
-369 400 0
-370 400 0
-371 400 0
-372 400 0
-373 400 0
369 370 371 372 373 -400 0
397 -400 -401 0
-397 400 -401 0
-397 -400 401 0
397 400 401 0
-3 401 0
369 402 0
370 402 0
371 402 0
372 402 0
373 402 0
-403 0
-397 402 -404 0
397 -402 -404 0
404 -402 -397 0
397 402 404 0
-4 -404 0
370 -405 -406 0
405 -370 -406 0
-370 -405 406 0
370 405 406 0
-1 -406 0
405 -371 -407 0
371 -405 -407 0
407 -405 -371 0
407 405 371 0
-2 407 0
-370 408 0
-371 408 0
-372 408 0
-373 408 0
370 371 372 373 -408 0
405 -408 -409 0
-405 408 -409 0
-405 -408 409 0
405 408 409 0
-3 409 0
370 410 0
371 410 0
372 410 0
373 410 0
-411 0
-405 410 -412 0
405 -410 -412 0
412 -410 -405 0
405 410 412 0
-4 -412 0
371 -413 -414 0
413 -371 -414 0
-371 -413 414 0
371 413 414 0
-1 -414 0
413 -372 -415 0
372 -413 -415 0
415 -413 -372 0
415 413 372 0
-2 415 0
413 -408 -416 0
408 -413 -416 0
-408 -413 416 0
413 408 416 0
-3 416 0
410 -413 -417 0
413 -410 -417 0
417 -410 -413 0
413 410 417 0
-4 -417 0
372 -418 -419 0
418 -372 -419 0
-372 -418 419 0
372 418 419 0
-1 -419 0
418 -373 -420 0
373 -418 -420 0
420 -418 -373 0
420 418 373 0
-2 420 0
418 -408 -421 0
408 -418 -421 0
-408 -418 421 0
418 408 421 0
-3 421 0
410 -418 -422 0
418 -410 -422 0
422 -410 -418 0
418 410 422 0
-4 -422 0
373 -423 -424 0
423 -373 -424 0
-373 -423 424 0
373 423 424 0
-1 -424 0
-370 423 -425 0
370 -423 -425 0
425 -423 -370 0
425 423 370 0
-2 425 0
-373 426 0
-405 426 0
373 405 -426 0
423 -426 -427 0
-423 426 -427 0
-423 -426 427 0
423 426 427 0
-3 427 0
373 428 0
405 428 0
-373 -405 -428 0
-423 428 -429 0
423 -428 -429 0
429 -428 -423 0
423 428 429 0
-4 -429 0
430 -431 -432 0
431 -430 -432 0
-430 -431 432 0
431 430 432 0
-1 -432 0
431 -433 -434 0
433 -431 -434 0
434 -431 -433 0
434 431 433 0
-2 434 0
-430 435 0
-433 435 0
-436 435 0
-437 435 0
-438 435 0
-439 435 0
440 0
431 -435 -441 0
-431 435 -441 0
-431 -435 441 0
431 435 441 0
-3 441 0
430 442 0
433 442 0
436 442 0
437 442 0
438 442 0
439 442 0
-443 0
-431 442 -444 0
431 -442 -444 0
444 -442 -431 0
431 442 444 0
-4 -444 0
433 -445 -446 0
445 -433 -446 0
-433 -445 446 0
433 445 446 0
-1 -446 0
445 -436 -447 0
436 -445 -447 0
447 -445 -436 0
447 445 436 0
-2 447 0
-433 448 0
-436 448 0
-437 448 0
-438 448 0
-439 448 0
433 436 437 438 439 -448 0
445 -448 -449 0
-445 448 -449 0
-445 -448 449 0
445 448 449 0
-3 449 0
433 450 0
436 450 0
437 450 0
438 450 0
439 450 0
-451 0
-445 450 -452 0
445 -450 -452 0
452 -450 -445 0
445 450 452 0
-4 -452 0
436 -453 -454 0
453 -436 -454 0
-436 -453 454 0
436 453 454 0
-1 -454 0
453 -437 -455 0
437 -453 -455 0
455 -453 -437 0
455 453 437 0
-2 455 0
453 -448 -456 0
448 -453 -456 0
-448 -453 456 0
453 448 456 0
-3 456 0
450 -453 -457 0
453 -450 -457 0
457 -450 -453 0
453 450 457 0
-4 -457 0
437 -458 -459 0
458 -437 -459 0
-437 -458 459 0
437 458 459 0
-1 -459 0
458 -438 -460 0
438 -458 -460 0
460 -458 -438 0
460 458 438 0
-2 460 0
458 -448 -461 0
448 -458 -461 0
-448 -458 461 0
458 448 461 0
-3 461 0
450 -458 -462 0
458 -450 -462 0
462 -450 -458 0
458 450 462 0
-4 -462 0
438 -463 -464 0
463 -438 -464 0
-438 -463 464 0
438 463 464 0
-1 -464 0
463 -439 -465 0
439 -463 -465 0
465 -463 -439 0
465 463 439 0
-2 465 0
463 -448 -466 0
448 -463 -466 0
-448 -463 466 0
463 448 466 0
-3 466 0
450 -463 -467 0
463 -450 -467 0
467 -450 -463 0
463 450 467 0
-4 -467 0
439 -468 -469 0
468 -439 -469 0
-439 -468 469 0
439 468 469 0
-1 -469 0
-433 468 -470 0
433 -468 -470 0
470 -468 -433 0
470 468 433 0
-2 470 0
-439 471 0
-445 471 0
439 445 -471 0
468 -471 -472 0
-468 471 -472 0
-468 -471 472 0
468 471 472 0
-3 472 0
439 473 0
445 473 0
-439 -445 -473 0
-468 473 -474 0
468 -473 -474 0
474 -473 -468 0
468 473 474 0
-4 -474 0
475 -476 -477 0
476 -475 -477 0
-475 -476 477 0
476 475 477 0
-1 -477 0
476 -478 -479 0
478 -476 -479 0
479 -476 -478 0
479 476 478 0
-2 479 0
-27 480 0
-28 480 0
-29 480 0
-30 480 0
-31 480 0
-475 480 0
-478 480 0
481 0
476 -480 -482 0
-476 480 -482 0
-476 -480 482 0
476 480 482 0
-3 482 0
27 483 0
28 483 0
29 483 0
30 483 0
31 483 0
475 483 0
478 483 0
-484 0
-476 483 -485 0
476 -483 -485 0
485 -483 -476 0
476 483 485 0
-4 -485 0
478 -486 -487 0
486 -478 -487 0
-478 -486 487 0
478 486 487 0
-1 -487 0
-27 486 -488 0
27 -486 -488 0
488 -486 -27 0
488 486 27 0
-2 488 0
-27 489 0
-28 489 0
-29 489 0
-30 489 0
-31 489 0
-478 489 0
27 28 29 30 31 478 -489 0
486 -489 -490 0
-486 489 -490 0
-486 -489 490 0
486 489 490 0
-3 490 0
27 491 0
28 491 0
29 491 0
30 491 0
31 491 0
478 491 0
-492 0
-486 491 -493 0
486 -491 -493 0
493 -491 -486 0
486 491 493 0
-4 -493 0
494 -495 -496 0
495 -494 -496 0
-494 -495 496 0
495 494 496 0
-1 -496 0
495 -497 -498 0
497 -495 -498 0
498 -495 -497 0
498 495 497 0
-2 498 0
-139 499 0
-142 499 0
-494 499 0
-497 499 0
-500 499 0
139 142 494 497 500 -499 0
495 -499 -501 0
-495 499 -501 0
-495 -499 501 0
495 499 501 0
-3 501 0
139 502 0
142 502 0
494 502 0
497 502 0
500 502 0
-503 0
-495 502 -504 0
495 -502 -504 0
504 -502 -495 0
495 502 504 0
-4 -504 0
497 -505 -506 0
505 -497 -506 0
-497 -505 506 0
497 505 506 0
-1 -506 0
505 -500 -507 0
500 -505 -507 0
507 -505 -500 0
507 505 500 0
-2 507 0
-139 508 0
-142 508 0
-497 508 0
-500 508 0
139 142 497 500 -508 0
505 -508 -509 0
-505 508 -509 0
-505 -508 509 0
505 508 509 0
-3 509 0
139 510 0
142 510 0
497 510 0
500 510 0
-511 0
-505 510 -512 0
505 -510 -512 0
512 -510 -505 0
505 510 512 0
-4 -512 0
500 -513 -514 0
513 -500 -514 0
-500 -513 514 0
500 513 514 0
-1 -514 0
-139 513 -515 0
139 -513 -515 0
515 -513 -139 0
515 513 139 0
-2 515 0
-139 516 0
-142 516 0
-500 516 0
139 142 500 -516 0
513 -516 -517 0
-513 516 -517 0
-513 -516 517 0
513 516 517 0
-3 517 0
139 518 0
142 518 0
500 518 0
-139 -142 -500 -518 0
-513 518 -519 0
513 -518 -519 0
519 -518 -513 0
513 518 519 0
-4 -519 0
520 -521 -522 0
521 -520 -522 0
-520 -521 522 0
521 520 522 0
-1 -522 0
521 -523 -524 0
523 -521 -524 0
524 -521 -523 0
524 521 523 0
-2 524 0
-433 525 0
-436 525 0
-437 525 0
-438 525 0
-439 525 0
-520 525 0
-523 525 0
526 0
521 -525 -527 0
-521 525 -527 0
-521 -525 527 0
521 525 527 0
-3 527 0
433 528 0
436 528 0
437 528 0
438 528 0
439 528 0
520 528 0
523 528 0
-529 0
-521 528 -530 0
521 -528 -530 0
530 -528 -521 0
521 528 530 0
-4 -530 0
523 -531 -532 0
531 -523 -532 0
-523 -531 532 0
523 531 532 0
-1 -532 0
-436 531 -533 0
436 -531 -533 0
533 -531 -436 0
533 531 436 0
-2 533 0
-433 534 0
-436 534 0
-437 534 0
-438 534 0
-439 534 0
-523 534 0
535 0
531 -534 -536 0
-531 534 -536 0
-531 -534 536 0
531 534 536 0
-3 536 0
433 537 0
436 537 0
437 537 0
438 537 0
439 537 0
523 537 0
-538 0
-531 537 -539 0
531 -537 -539 0
539 -537 -531 0
531 537 539 0
-4 -539 0
540 -541 -542 0
541 -540 -542 0
-540 -541 542 0
541 540 542 0
-1 -542 0
-279 541 -543 0
279 -541 -543 0
543 -541 -279 0
543 541 279 0
-2 543 0
-5 544 0
-8 544 0
-279 544 0
-540 544 0
5 8 279 540 -544 0
541 -544 -545 0
-541 544 -545 0
-541 -544 545 0
541 544 545 0
-3 545 0
5 546 0
8 546 0
279 546 0
540 546 0
-547 0
-541 546 -548 0
541 -546 -548 0
548 -546 -541 0
541 546 548 0
-4 -548 0
549 -550 -551 0
550 -549 -551 0
-549 -550 551 0
550 549 551 0
-1 -551 0
550 -552 -553 0
552 -550 -553 0
553 -550 -552 0
553 550 552 0
-2 553 0
-166 554 0
-167 554 0
-168 554 0
-549 554 0
-552 554 0
-555 554 0
556 0
550 -554 -557 0
-550 554 -557 0
-550 -554 557 0
550 554 557 0
-3 557 0
166 558 0
167 558 0
168 558 0
549 558 0
552 558 0
555 558 0
-559 0
-550 558 -560 0
550 -558 -560 0
560 -558 -550 0
550 558 560 0
-4 -560 0
552 -561 -562 0
561 -552 -562 0
-552 -561 562 0
552 561 562 0
-1 -562 0
561 -555 -563 0
555 -561 -563 0
563 -561 -555 0
563 561 555 0
-2 563 0
-166 564 0
-167 564 0
-168 564 0
-552 564 0
-555 564 0
166 167 168 552 555 -564 0
561 -564 -565 0
-561 564 -565 0
-561 -564 565 0
561 564 565 0
-3 565 0
166 566 0
167 566 0
168 566 0
552 566 0
555 566 0
-567 0
-561 566 -568 0
561 -566 -568 0
568 -566 -561 0
561 566 568 0
-4 -568 0
555 -569 -570 0
569 -555 -570 0
-555 -569 570 0
555 569 570 0
-1 -570 0
-167 569 -571 0
167 -569 -571 0
571 -569 -167 0
571 569 167 0
-2 571 0
-166 572 0
-167 572 0
-168 572 0
-555 572 0
166 167 168 555 -572 0
569 -572 -573 0
-569 572 -573 0
-569 -572 573 0
569 572 573 0
-3 573 0
166 574 0
167 574 0
168 574 0
555 574 0
-575 0
-569 574 -576 0
569 -574 -576 0
576 -574 -569 0
569 574 576 0
-4 -576 0
577 -578 -579 0
578 -577 -579 0
-577 -578 579 0
578 577 579 0
-1 -579 0
578 -580 -581 0
580 -578 -581 0
581 -578 -580 0
581 578 580 0
-2 581 0
-139 582 0
-142 582 0
-500 582 0
-577 582 0
-580 582 0
139 142 500 577 580 -582 0
578 -582 -583 0
-578 582 -583 0
-578 -582 583 0
578 582 583 0
-3 583 0
139 584 0
142 584 0
500 584 0
577 584 0
580 584 0
-585 0
-578 584 -586 0
578 -584 -586 0
586 -584 -578 0
578 584 586 0
-4 -586 0
580 -587 -588 0
587 -580 -588 0
-580 -587 588 0
580 587 588 0
-1 -588 0
-500 587 -589 0
500 -587 -589 0
589 -587 -500 0
589 587 500 0
-2 589 0
-139 590 0
-142 590 0
-500 590 0
-580 590 0
139 142 500 580 -590 0
587 -590 -591 0
-587 590 -591 0
-587 -590 591 0
587 590 591 0
-3 591 0
139 592 0
142 592 0
500 592 0
580 592 0
-593 0
-587 592 -594 0
587 -592 -594 0
594 -592 -587 0
587 592 594 0
-4 -594 0
595 -596 -597 0
596 -595 -597 0
-595 -596 597 0
596 595 597 0
-1 -597 0
-86 596 -598 0
86 -596 -598 0
598 -596 -86 0
598 596 86 0
-2 598 0
-85 599 0
-86 599 0
-87 599 0
-88 599 0
-595 599 0
85 86 87 88 595 -599 0
596 -599 -600 0
-596 599 -600 0
-596 -599 600 0
596 599 600 0
-3 600 0
85 601 0
86 601 0
87 601 0
88 601 0
595 601 0
-602 0
-596 601 -603 0
596 -601 -603 0
603 -601 -596 0
596 601 603 0
-4 -603 0
604 -605 -606 0
605 -604 -606 0
-604 -605 606 0
605 604 606 0
-1 -606 0
605 -607 -608 0
607 -605 -608 0
608 -605 -607 0
608 605 607 0
-2 608 0
-370 609 0
-371 609 0
-372 609 0
-373 609 0
-604 609 0
-607 609 0
610 0
605 -609 -611 0
-605 609 -611 0
-605 -609 611 0
605 609 611 0
-3 611 0
370 612 0
371 612 0
372 612 0
373 612 0
604 612 0
607 612 0
-613 0
-605 612 -614 0
605 -612 -614 0
614 -612 -605 0
605 612 614 0
-4 -614 0
607 -615 -616 0
615 -607 -616 0
-607 -615 616 0
607 615 616 0
-1 -616 0
-373 615 -617 0
373 -615 -617 0
617 -615 -373 0
617 615 373 0
-2 617 0
-370 618 0
-371 618 0
-372 618 0
-373 618 0
-607 618 0
370 371 372 373 607 -618 0
615 -618 -619 0
-615 618 -619 0
-615 -618 619 0
615 618 619 0
-3 619 0
370 620 0
371 620 0
372 620 0
373 620 0
607 620 0
-621 0
-615 620 -622 0
615 -620 -622 0
622 -620 -615 0
615 620 622 0
-4 -622 0
623 -624 -625 0
624 -623 -625 0
-623 -624 625 0
624 623 625 0
-1 -625 0
-273 624 -626 0
273 -624 -626 0
626 -624 -273 0
626 624 273 0
-2 626 0
-5 627 0
-8 627 0
-273 627 0
-276 627 0
-279 627 0
-623 627 0
5 8 273 276 279 623 -627 0
624 -627 -628 0
-624 627 -628 0
-624 -627 628 0
624 627 628 0
-3 628 0
5 629 0
8 629 0
273 629 0
276 629 0
279 629 0
623 629 0
-630 0
-624 629 -631 0
624 -629 -631 0
631 -629 -624 0
624 629 631 0
-4 -631 0
632 -633 -634 0
633 -632 -634 0
-632 -633 634 0
633 632 634 0
-1 -634 0
633 -635 -636 0
635 -633 -636 0
636 -633 -635 0
636 633 635 0
-2 636 0
-370 637 0
-371 637 0
-372 637 0
-373 637 0
-607 637 0
-632 637 0
-635 637 0
-638 637 0
639 0
633 -637 -640 0
-633 637 -640 0
-633 -637 640 0
633 637 640 0
-3 640 0
370 641 0
371 641 0
372 641 0
373 641 0
607 641 0
632 641 0
635 641 0
638 641 0
-642 0
-633 641 -643 0
633 -641 -643 0
643 -641 -633 0
633 641 643 0
-4 -643 0
635 -644 -645 0
644 -635 -645 0
-635 -644 645 0
635 644 645 0
-1 -645 0
644 -638 -646 0
638 -644 -646 0
646 -644 -638 0
646 644 638 0
-2 646 0
-370 647 0
-371 647 0
-372 647 0
-373 647 0
-607 647 0
-635 647 0
-638 647 0
648 0
644 -647 -649 0
-644 647 -649 0
-644 -647 649 0
644 647 649 0
-3 649 0
370 650 0
371 650 0
372 650 0
373 650 0
607 650 0
635 650 0
638 650 0
-651 0
-644 650 -652 0
644 -650 -652 0
652 -650 -644 0
644 650 652 0
-4 -652 0
638 -653 -654 0
653 -638 -654 0
-638 -653 654 0
638 653 654 0
-1 -654 0
-607 653 -655 0
607 -653 -655 0
655 -653 -607 0
655 653 607 0
-2 655 0
-370 656 0
-371 656 0
-372 656 0
-373 656 0
-607 656 0
-638 656 0
657 0
653 -656 -658 0
-653 656 -658 0
-653 -656 658 0
653 656 658 0
-3 658 0
370 659 0
371 659 0
372 659 0
373 659 0
607 659 0
638 659 0
-660 0
-653 659 -661 0
653 -659 -661 0
661 -659 -653 0
653 659 661 0
-4 -661 0
662 -663 -664 0
663 -662 -664 0
-662 -663 664 0
663 662 664 0
-1 -664 0
-372 663 -665 0
372 -663 -665 0
665 -663 -372 0
665 663 372 0
-2 665 0
-370 666 0
-371 666 0
-372 666 0
-373 666 0
-662 666 0
370 371 372 373 662 -666 0
663 -666 -667 0
-663 666 -667 0
-663 -666 667 0
663 666 667 0
-3 667 0
370 668 0
371 668 0
372 668 0
373 668 0
662 668 0
-669 0
-663 668 -670 0
663 -668 -670 0
670 -668 -663 0
663 668 670 0
-4 -670 0
671 -672 -673 0
672 -671 -673 0
-671 -672 673 0
672 671 673 0
-1 -673 0
-207 672 -674 0
207 -672 -674 0
674 -672 -207 0
674 672 207 0
-2 674 0
-5 675 0
-8 675 0
-207 675 0
-671 675 0
5 8 207 671 -675 0
672 -675 -676 0
-672 675 -676 0
-672 -675 676 0
672 675 676 0
-3 676 0
5 677 0
8 677 0
207 677 0
671 677 0
-678 0
-672 677 -679 0
672 -677 -679 0
679 -677 -672 0
672 677 679 0
-4 -679 0
680 -681 -682 0
681 -680 -682 0
-680 -681 682 0
681 680 682 0
-1 -682 0
681 -683 -684 0
683 -681 -684 0
684 -681 -683 0
684 681 683 0
-2 684 0
-136 685 0
-139 685 0
-142 685 0
-680 685 0
-683 685 0
136 139 142 680 683 -685 0
681 -685 -686 0
-681 685 -686 0
-681 -685 686 0
681 685 686 0
-3 686 0
136 687 0
139 687 0
142 687 0
680 687 0
683 687 0
-688 0
-681 687 -689 0
681 -687 -689 0
689 -687 -681 0
681 687 689 0
-4 -689 0
683 -690 -691 0
690 -683 -691 0
-683 -690 691 0
683 690 691 0
-1 -691 0
-136 690 -692 0
136 -690 -692 0
692 -690 -136 0
692 690 136 0
-2 692 0
-136 693 0
-139 693 0
-142 693 0
-683 693 0
136 139 142 683 -693 0
690 -693 -694 0
-690 693 -694 0
-690 -693 694 0
690 693 694 0
-3 694 0
136 695 0
139 695 0
142 695 0
683 695 0
-696 0
-690 695 -697 0
690 -695 -697 0
697 -695 -690 0
690 695 697 0
-4 -697 0
698 -699 -700 0
699 -698 -700 0
-698 -699 700 0
699 698 700 0
-1 -700 0
-552 699 -701 0
552 -699 -701 0
701 -699 -552 0
701 699 552 0
-2 701 0
-166 702 0
-167 702 0
-168 702 0
-552 702 0
-555 702 0
-698 702 0
703 0
699 -702 -704 0
-699 702 -704 0
-699 -702 704 0
699 702 704 0
-3 704 0
166 705 0
167 705 0
168 705 0
552 705 0
555 705 0
698 705 0
-706 0
-699 705 -707 0
699 -705 -707 0
707 -705 -699 0
699 705 707 0
-4 -707 0
708 -709 -710 0
709 -708 -710 0
-708 -709 710 0
709 708 710 0
-1 -710 0
709 -711 -712 0
711 -709 -712 0
712 -709 -711 0
712 709 711 0
-2 712 0
-368 713 0
-369 713 0
-370 713 0
-371 713 0
-372 713 0
-373 713 0
-708 713 0
-711 713 0
714 0
709 -713 -715 0
-709 713 -715 0
-709 -713 715 0
709 713 715 0
-3 715 0
368 716 0
369 716 0
370 716 0
371 716 0
372 716 0
373 716 0
708 716 0
711 716 0
-717 0
-709 716 -718 0
709 -716 -718 0
718 -716 -709 0
709 716 718 0
-4 -718 0
711 -719 -720 0
719 -711 -720 0
-711 -719 720 0
711 719 720 0
-1 -720 0
-368 719 -721 0
368 -719 -721 0
721 -719 -368 0
721 719 368 0
-2 721 0
-368 722 0
-369 722 0
-370 722 0
-371 722 0
-372 722 0
-373 722 0
-711 722 0
723 0
719 -722 -724 0
-719 722 -724 0
-719 -722 724 0
719 722 724 0
-3 724 0
368 725 0
369 725 0
370 725 0
371 725 0
372 725 0
373 725 0
711 725 0
-726 0
-719 725 -727 0
719 -725 -727 0
727 -725 -719 0
719 725 727 0
-4 -727 0
728 -729 -730 0
729 -728 -730 0
-728 -729 730 0
729 728 730 0
-1 -730 0
729 -731 -732 0
731 -729 -732 0
732 -729 -731 0
732 729 731 0
-2 732 0
-369 733 0
-370 733 0
-371 733 0
-372 733 0
-373 733 0
-728 733 0
-731 733 0
-734 733 0
735 0
729 -733 -736 0
-729 733 -736 0
-729 -733 736 0
729 733 736 0
-3 736 0
369 737 0
370 737 0
371 737 0
372 737 0
373 737 0
728 737 0
731 737 0
734 737 0
-738 0
-729 737 -739 0
729 -737 -739 0
739 -737 -729 0
729 737 739 0
-4 -739 0
731 -740 -741 0
740 -731 -741 0
-731 -740 741 0
731 740 741 0
-1 -741 0
740 -734 -742 0
734 -740 -742 0
742 -740 -734 0
742 740 734 0
-2 742 0
-369 743 0
-370 743 0
-371 743 0
-372 743 0
-373 743 0
-731 743 0
-734 743 0
744 0
740 -743 -745 0
-740 743 -745 0
-740 -743 745 0
740 743 745 0
-3 745 0
369 746 0
370 746 0
371 746 0
372 746 0
373 746 0
731 746 0
734 746 0
-747 0
-740 746 -748 0
740 -746 -748 0
748 -746 -740 0
740 746 748 0
-4 -748 0
734 -749 -750 0
749 -734 -750 0
-734 -749 750 0
734 749 750 0
-1 -750 0
-369 749 -751 0
369 -749 -751 0
751 -749 -369 0
751 749 369 0
-2 751 0
-369 752 0
-370 752 0
-371 752 0
-372 752 0
-373 752 0
-734 752 0
753 0
749 -752 -754 0
-749 752 -754 0
-749 -752 754 0
749 752 754 0
-3 754 0
369 755 0
370 755 0
371 755 0
372 755 0
373 755 0
734 755 0
-756 0
-749 755 -757 0
749 -755 -757 0
757 -755 -749 0
749 755 757 0
-4 -757 0
6 0
14 0
22 0
71 0
79 0
103 0
137 0
146 0
-153 0
161 0
188 0
201 0
220 0
228 0
236 0
274 0
284 0
300 0
309 0
324 0
343 0
353 0
363 0
431 0
445 0
453 0
476 0
495 0
513 0
521 0
541 0
550 0
578 0
596 0
605 0
624 0
633 0
663 0
672 0
681 0
699 0
709 0
729 0
